(define-fun
  h0
  ((x Int)) Int (* x x))
(define-fun
  fast
  ((x Int)) Int
  (* (+ 1 (* 2 (* 2 (+ 2 2))))
    (+ (* (* x x) (+ 1 (* 2 (* 2 (+ 2 2))))) 1)))
(define-fun
  f1
  ((x Int)) Int (* x x))
(define-fun-rec
  u1
  ((x Int) (y Int)) Int (ite (<= x 0) y (f1 (u1 (- x 1) y))))
(define-fun
  v1
  () Int (u1 2 2))
(define-fun
  f0
  ((x Int)) Int (+ 1 (+ (* v1 x) x)))
(define-fun-rec
  u0
  ((x Int) (y Int)) Int (ite (<= x 0) y (f0 (u0 (- x 1) y))))
(define-fun
  v0
  ((x Int)) Int (u0 2 (h0 x)))
(define-fun
  small
  ((x Int)) Int (- (v0 x) 1))
(assert-not
  (forall ((c Int)) (or (not (>= c 0)) (= (small c) (fast c)))))
